5 69 
58 36 
75 55 
61 70 
9 91 
71 57 
68 72 
89 62 
37 70 
25 59 
68 13 
69 3 
85 73 
93 0 
1 43 
5 6 
12 63 
95 39 
18 56 
9 27 
47 32 
36 67 
57 25 
82 94 
47 7 
53 68 
21 74 
71 58 
47 16 
10 49 
59 15 
7 23 
30 2 
62 0 
58 24 
79 58 
8 15 
25 65 
40 7 
59 40 
67 64 
8 88 
38 31 
98 86 
47 8 
87 58 
76 94 
81 6 
49 95 
7 7 
